Route #1: 0 43 16 30 42 5 0
Route #2: 0 13 1 26 25 29 4 0
Route #3: 0 39 22 8 27 28 19 37 23 32 12 0
Route #4: 0 7 15 9 21 38 40 33 0
Route #5: 0 35 41 31 3 34 20 0
Route #6: 0 44 18 6 11 10 36 2 14 17 24 0
Cost 715:
